c turning on binary mode checking
c parsing input formula with 123061 variables and 363619 clauses
c finished parsing, read 120542300 bytes from proof file
c detected empty clause; start verification via backward checking
c 38849 of 363619 clauses in core                            
c 665526 of 1675346 lemmas in core using 25116042 resolution steps
c 0 RAT lemmas in core; 270987 redundant literals in core lemmas
s VERIFIED
c verification time: 105.747 seconds
